set PROD := bands coils plate;
set STAGE := reheat roll;

param rate: reheat	roll :=
	bands 	200 	200
	coils 	200 	120
	plate 	200 	160 ;

param: 		profit 	min_share 	market :=
	bands 	25 		0.5			6000
	coils 	30 		0.1 		4000
	plate 	29 		0.5 		3500 ;

param avail := reheat 35 roll 40 ;